DIMENSION: 8
EDGE_WEIGHT_TYPE: EXPLICIT
EDGE_WEIGHT_FORMAT: FULL_MATRIX
EDGE_WEIGHT_SECTION:
32767 32767 32767 32767 32767 32767 32767 70 
32767 32767 32767 49 58 93 32767 62 
32767 32767 32767 64 32767 32767 32767 32767 
32767 49 64 32767 32767 32767 1 32767 
32767 58 32767 32767 32767 32767 32767 37 
32767 93 32767 32767 32767 32767 32767 32767 
32767 32767 32767 1 32767 32767 32767 50 
70 62 32767 32767 37 32767 50 32767 
EOF